assets/logs/6_8x8_clingo/6_8x8_clingo.solution.log

---------------------------------
|  0| 41|  0|  0|  0| 46|  0|  1|
---------------------------------
|  0| 15| 37| 44| 45|  3| 14| 48|
---------------------------------
| 39| 42| 43|  0| 16|  0| 47|  5|
---------------------------------
| 17| 35| 13| 40| 49| 12| 18|  0|
---------------------------------
| 27| 38| 19|  0| 11|  0|  7| 10|
---------------------------------
| 33| 28| 29| 36| 21|  8|  0| 20|
---------------------------------
|  0| 25| 32|  2| 24|  9|  0|  6|
---------------------------------
| 30| 31| 26| 23| 34|  4| 22|  0|
---------------------------------

| n = 8 | k = 10 | coverage = 58, 90.625%
 Time 299.985
 Name 6_8x8_clingo

