assets/logs/6_8x8_clingo/6_8x8_clingo.log
clingo version 5.4.0
Reading from ...sets/logs/6_8x8_clingo/knights_tour.lp ...
Solving...
Answer: 1
occ(1,7,7) occ(1,5,6) occ(1,2,1) occ(1,6,7) occ(1,1,7) occ(1,3,4) occ(1,8,8) occ(1,3,6) occ(1,5,4) occ(1,1,4) occ(2,1,8) occ(3,7,4) coverage(6)
Optimization: -6
Answer: 2
occ(1,7,7) occ(1,5,6) occ(1,2,1) occ(1,6,7) occ(1,1,7) occ(1,3,4) occ(1,8,8) occ(1,3,6) occ(1,5,4) occ(1,1,4) occ(2,1,8) occ(3,7,4) coverage(23) occ(11,1,2) occ(19,1,6) occ(32,1,3) occ(4,2,6) occ(9,2,4) occ(15,2,3) occ(21,2,8) occ(30,2,5) occ(6,3,8) occ(13,3,1) occ(17,3,5) occ(28,3,7) occ(34,3,2) occ(7,4,3) occ(22,4,7) occ(44,4,2) occ(52,4,4) occ(58,4,1) occ(5,5,5) occ(8,5,7) occ(26,5,8) occ(36,5,1) occ(50,5,2) occ(56,5,3) occ(12,6,4) occ(20,6,8) occ(24,6,6) occ(42,6,3) occ(46,6,1) occ(54,6,5) occ(60,6,2) occ(10,7,6) occ(16,7,5) occ(38,7,2) occ(48,7,3) occ(14,8,3) occ(18,8,7) occ(40,8,4) occ(62,8,1)
Optimization: -23
Answer: 3
occ(1,7,7) occ(1,5,6) occ(1,2,1) occ(1,6,7) occ(1,1,7) occ(1,3,4) occ(1,8,8) occ(1,3,6) occ(1,5,4) occ(1,1,4) occ(2,1,8) occ(3,7,4) coverage(25) occ(11,1,2) occ(19,1,6) occ(32,1,3) occ(4,2,6) occ(9,2,4) occ(15,2,3) occ(30,2,5) occ(6,3,8) occ(13,3,1) occ(17,3,5) occ(21,3,7) occ(34,3,2) occ(7,4,3) occ(22,4,7) occ(23,4,5) occ(28,4,6) occ(44,4,2) occ(52,4,4) occ(58,4,1) occ(5,5,5) occ(8,5,7) occ(26,5,8) occ(36,5,1) occ(50,5,2) occ(56,5,3) occ(12,6,4) occ(20,6,8) occ(24,6,6) occ(42,6,3) occ(46,6,1) occ(54,6,5) occ(60,6,2) occ(10,7,6) occ(16,7,5) occ(38,7,2) occ(48,7,3) occ(14,8,3) occ(18,8,7) occ(40,8,4) occ(62,8,1)
Optimization: -25
Answer: 4
occ(1,7,7) occ(1,5,6) occ(1,2,1) occ(1,6,7) occ(1,1,7) occ(1,3,4) occ(1,8,8) occ(1,3,6) occ(1,5,4) occ(1,1,4) occ(2,1,8) occ(3,7,4) coverage(27) occ(11,1,2) occ(19,1,6) occ(32,1,3) occ(4,2,6) occ(9,2,4) occ(15,2,3) occ(30,2,5) occ(6,3,8) occ(13,3,1) occ(17,3,5) occ(21,3,7) occ(25,3,3) occ(34,3,2) occ(7,4,3) occ(22,4,7) occ(23,4,5) occ(28,4,6) occ(44,4,2) occ(52,4,4) occ(58,4,1) occ(5,5,5) occ(8,5,7) occ(26,5,8) occ(36,5,1) occ(50,5,2) occ(56,5,3) occ(12,6,4) occ(20,6,8) occ(24,6,6) occ(42,6,3) occ(46,6,1) occ(54,6,5) occ(60,6,2) occ(10,7,6) occ(16,7,5) occ(38,7,2) occ(48,7,3) occ(14,8,3) occ(18,8,7) occ(40,8,4) occ(62,8,1)
Optimization: -27
Answer: 5
occ(1,7,7) occ(1,5,6) occ(1,2,1) occ(1,6,7) occ(1,1,7) occ(1,3,4) occ(1,8,8) occ(1,3,6) occ(1,5,4) occ(1,1,4) occ(2,1,8) occ(3,7,4) coverage(29) occ(13,1,5) occ(19,1,6) occ(30,1,2) occ(4,2,6) occ(11,2,7) occ(15,2,3) occ(21,2,4) occ(26,2,5) occ(17,3,5) occ(24,3,7) occ(28,3,3) occ(32,3,1) occ(54,3,2) occ(6,4,7) occ(9,4,6) occ(23,4,5) occ(34,4,3) occ(44,4,2) occ(52,4,4) occ(58,4,1) occ(8,5,5) occ(22,5,8) occ(25,5,7) occ(36,5,1) occ(50,5,2) occ(56,5,3) occ(7,6,5) occ(12,6,4) occ(20,6,6) occ(42,6,3) occ(46,6,1) occ(60,6,2) occ(10,7,6) occ(16,7,5) occ(27,7,8) occ(38,7,2) occ(48,7,3) occ(5,8,6) occ(14,8,3) occ(18,8,7) occ(40,8,4) occ(62,8,1)
Optimization: -29
Answer: 6
occ(1,7,7) occ(1,5,6) occ(1,2,1) occ(1,6,7) occ(1,1,7) occ(1,3,4) occ(1,8,8) occ(1,3,6) occ(1,5,4) occ(1,1,4) occ(2,1,8) occ(3,7,4) coverage(31) occ(13,1,5) occ(19,1,6) occ(29,1,3) occ(30,1,2) occ(4,2,6) occ(11,2,7) occ(15,2,3) occ(27,2,5) occ(32,2,4) occ(6,3,8) occ(17,3,5) occ(21,3,7) occ(25,3,3) occ(28,3,1) occ(34,3,2) occ(9,4,6) occ(22,4,7) occ(23,4,5) occ(26,4,3) occ(44,4,2) occ(52,4,4) occ(58,4,1) occ(7,5,8) occ(8,5,7) occ(24,5,5) occ(36,5,1) occ(50,5,2) occ(56,5,3) occ(5,6,6) occ(12,6,4) occ(20,6,8) occ(42,6,3) occ(46,6,1) occ(54,6,5) occ(60,6,2) occ(10,7,6) occ(16,7,5) occ(38,7,2) occ(48,7,3) occ(14,8,3) occ(18,8,7) occ(40,8,4) occ(62,8,1)
Optimization: -31
Answer: 7
occ(1,7,7) occ(1,5,6) occ(1,2,1) occ(1,6,7) occ(1,1,7) occ(1,3,4) occ(1,8,8) occ(1,3,6) occ(1,5,4) occ(1,1,4) occ(2,1,8) occ(3,7,4) coverage(35) occ(18,1,2) occ(27,1,6) occ(28,1,3) occ(4,2,6) occ(22,2,3) occ(26,2,5) occ(32,2,4) occ(33,2,8) occ(48,2,2) occ(6,3,8) occ(16,3,3) occ(20,3,1) occ(25,3,7) occ(29,3,5) occ(30,3,2) occ(24,4,4) occ(31,4,7) occ(34,4,5) occ(46,4,3) occ(50,4,1) occ(8,5,7) occ(14,5,2) occ(23,5,8) occ(36,5,3) occ(44,5,1) occ(7,6,1) occ(12,6,4) occ(13,6,2) occ(21,6,6) occ(38,6,5) occ(9,7,3) occ(10,7,6) occ(17,7,5) occ(42,7,2) occ(5,8,2) occ(11,8,1) occ(15,8,3) occ(19,8,7) occ(40,8,4)
Optimization: -35
Answer: 8
occ(1,7,7) occ(1,5,6) occ(1,2,1) occ(1,6,7) occ(1,1,7) occ(1,3,4) occ(1,8,8) occ(1,3,6) occ(1,5,4) occ(1,1,4) occ(2,1,8) occ(3,7,4) coverage(39) occ(18,1,2) occ(27,1,6) occ(28,1,3) occ(4,2,6) occ(22,2,3) occ(26,2,5) occ(29,2,8) occ(32,2,4) occ(48,2,2) occ(6,3,8) occ(16,3,3) occ(20,3,1) occ(25,3,7) occ(30,3,2) occ(24,4,4) occ(31,4,7) occ(34,4,5) occ(37,4,2) occ(46,4,3) occ(50,4,1) occ(8,5,7) occ(14,5,2) occ(23,5,8) occ(33,5,5) occ(36,5,3) occ(44,5,1) occ(7,6,1) occ(12,6,4) occ(13,6,2) occ(21,6,6) occ(35,6,3) occ(38,6,5) occ(9,7,3) occ(10,7,6) occ(17,7,5) occ(42,7,2) occ(5,8,2) occ(11,8,1) occ(15,8,3) occ(19,8,7) occ(40,8,4)
Optimization: -39
Answer: 9
occ(1,7,7) occ(1,5,6) occ(1,2,1) occ(1,6,7) occ(1,1,7) occ(1,3,4) occ(1,8,8) occ(1,3,6) occ(1,5,4) occ(1,1,4) occ(2,1,8) occ(3,7,4) coverage(41) occ(18,1,2) occ(27,1,6) occ(28,1,3) occ(4,2,6) occ(22,2,3) occ(26,2,5) occ(31,2,7) occ(32,2,4) occ(48,2,2) occ(6,3,8) occ(16,3,3) occ(20,3,1) occ(25,3,7) occ(29,3,5) occ(30,3,2) occ(24,4,4) occ(33,4,6) occ(34,4,5) occ(46,4,3) occ(50,4,1) occ(8,5,7) occ(14,5,2) occ(23,5,8) occ(36,5,3) occ(44,5,1) occ(7,6,1) occ(12,6,4) occ(13,6,2) occ(21,6,6) occ(35,6,5) occ(42,6,3) occ(9,7,3) occ(10,7,6) occ(17,7,5) occ(38,7,2) occ(39,7,8) occ(5,8,2) occ(11,8,1) occ(15,8,3) occ(19,8,7) occ(37,8,6) occ(40,8,4)
Optimization: -41
Answer: 10
occ(1,7,7) occ(1,5,6) occ(1,2,1) occ(1,6,7) occ(1,1,7) occ(1,3,4) occ(1,8,8) occ(1,3,6) occ(1,5,4) occ(1,1,4) occ(2,1,8) occ(3,7,4) coverage(45) occ(18,1,2) occ(27,1,6) occ(28,1,3) occ(4,2,6) occ(22,2,3) occ(26,2,5) occ(29,2,8) occ(32,2,4) occ(35,2,7) occ(48,2,2) occ(6,3,8) occ(16,3,3) occ(20,3,1) occ(25,3,7) occ(30,3,2) occ(33,3,5) occ(24,4,4) occ(31,4,7) occ(34,4,5) occ(37,4,6) occ(46,4,3) occ(50,4,1) occ(8,5,7) occ(14,5,2) occ(23,5,8) occ(36,5,3) occ(44,5,1) occ(7,6,1) occ(12,6,4) occ(13,6,2) occ(21,6,6) occ(39,6,5) occ(42,6,3) occ(9,7,3) occ(10,7,6) occ(17,7,5) occ(38,7,2) occ(43,7,8) occ(5,8,2) occ(11,8,1) occ(15,8,3) occ(19,8,7) occ(40,8,4) occ(41,8,6)
Optimization: -45
Answer: 11
occ(1,7,7) occ(1,5,6) occ(1,2,1) occ(1,6,7) occ(1,1,7) occ(1,3,4) occ(1,8,8) occ(1,3,6) occ(1,5,4) occ(1,1,4) occ(2,1,8) occ(3,7,4) coverage(46) occ(18,1,2) occ(27,1,6) occ(28,1,3) occ(4,2,6) occ(22,2,3) occ(26,2,5) occ(32,2,4) occ(49,2,2) occ(6,3,8) occ(16,3,3) occ(20,3,1) occ(25,3,7) occ(29,3,5) occ(30,3,2) occ(21,4,6) occ(24,4,4) occ(31,4,3) occ(34,4,5) occ(35,4,7) occ(47,4,1) occ(8,5,7) occ(14,5,2) occ(23,5,8) occ(33,5,5) occ(36,5,3) occ(44,5,1) occ(7,6,1) occ(12,6,4) occ(13,6,6) occ(19,6,5) occ(37,6,8) occ(42,6,3) occ(45,6,2) occ(9,7,3) occ(10,7,6) occ(15,7,8) occ(38,7,2) occ(41,7,5) occ(5,8,2) occ(11,8,5) occ(17,8,6) occ(39,8,7) occ(40,8,4) occ(43,8,3)
Optimization: -46
Answer: 12
occ(1,7,7) occ(1,5,6) occ(1,2,1) occ(1,6,7) occ(1,1,7) occ(1,3,4) occ(1,8,8) occ(1,3,6) occ(1,5,4) occ(1,1,4) occ(2,1,8) occ(3,7,4) coverage(47) occ(19,1,2) occ(42,1,6) occ(45,1,5) occ(4,2,6) occ(15,2,5) occ(21,2,4) occ(28,2,2) occ(34,2,7) occ(43,2,3) occ(44,2,8) occ(6,3,8) occ(17,3,3) occ(23,3,2) occ(32,3,5) occ(40,3,7) occ(41,3,1) occ(9,4,2) occ(13,4,4) occ(22,4,5) occ(26,4,1) occ(30,4,3) occ(36,4,6) occ(46,4,7) occ(8,5,7) occ(24,5,3) occ(25,5,1) occ(38,5,8) occ(39,5,2) occ(7,6,1) occ(11,6,3) occ(14,6,5) occ(20,6,6) occ(29,6,4) occ(33,6,2) occ(48,6,8) occ(10,7,6) occ(18,7,8) occ(27,7,2) occ(37,7,3) occ(52,7,5) occ(5,8,2) occ(12,8,4) occ(16,8,6) occ(31,8,3) occ(35,8,1) occ(50,8,7)
Optimization: -47
Answer: 13
occ(1,7,7) occ(1,5,6) occ(1,2,1) occ(1,6,7) occ(1,1,7) occ(1,3,4) occ(1,8,8) occ(1,3,6) occ(1,5,4) occ(1,1,4) occ(2,1,8) occ(3,7,4) coverage(48) occ(17,1,5) occ(21,1,1) occ(22,1,2) occ(30,1,6) occ(4,2,6) occ(15,2,7) occ(19,2,3) occ(25,2,4) occ(26,2,5) occ(6,3,8) occ(20,3,1) occ(23,3,2) occ(24,3,3) occ(28,3,7) occ(32,3,5) occ(13,4,6) occ(27,4,5) occ(34,4,3) occ(35,4,7) occ(8,5,7) occ(11,5,8) occ(18,5,2) occ(33,5,5) occ(36,5,1) occ(40,5,3) occ(9,6,6) occ(10,6,5) occ(14,6,3) occ(29,6,4) occ(37,6,8) occ(42,6,1) occ(45,6,2) occ(7,7,8) occ(16,7,1) occ(31,7,6) occ(38,7,2) occ(41,7,5) occ(44,7,3) occ(5,8,6) occ(12,8,4) occ(39,8,7) occ(43,8,3) occ(46,8,5) occ(47,8,1)
Optimization: -48
Answer: 14
occ(1,7,7) occ(1,5,6) occ(1,2,1) occ(1,6,7) occ(1,1,7) occ(1,3,4) occ(1,8,8) occ(1,3,6) occ(1,5,4) occ(1,1,4) occ(2,1,8) occ(3,7,4) coverage(49) occ(17,1,5) occ(21,1,1) occ(30,1,6) occ(46,1,2) occ(4,2,6) occ(15,2,7) occ(19,2,3) occ(25,2,4) occ(26,2,5) occ(6,3,8) occ(23,3,2) occ(28,3,7) occ(32,3,5) occ(44,3,3) occ(48,3,1) occ(13,4,6) occ(24,4,4) occ(27,4,5) occ(34,4,3) occ(35,4,7) occ(42,4,1) occ(8,5,7) occ(11,5,8) occ(22,5,2) occ(33,5,5) occ(36,5,1) occ(40,5,3) occ(9,6,6) occ(10,6,5) occ(14,6,3) occ(18,6,1) occ(29,6,4) occ(37,6,8) occ(45,6,2) occ(7,7,8) occ(20,7,3) occ(31,7,6) occ(38,7,2) occ(41,7,5) occ(5,8,6) occ(12,8,4) occ(16,8,2) occ(39,8,7) occ(43,8,3) occ(47,8,1)
Optimization: -49
Answer: 15
occ(1,7,7) occ(1,5,6) occ(1,2,1) occ(1,6,7) occ(1,1,7) occ(1,3,4) occ(1,8,8) occ(1,3,6) occ(1,5,4) occ(1,1,4) occ(2,1,8) occ(3,7,4) coverage(50) occ(22,1,2) occ(47,1,6) occ(48,1,3) occ(4,2,6) occ(15,2,7) occ(18,2,3) occ(28,2,2) occ(45,2,4) occ(46,2,5) occ(49,2,8) occ(6,3,8) occ(17,3,5) occ(20,3,1) occ(24,3,3) occ(43,3,2) occ(44,3,7) occ(13,4,6) occ(16,4,2) occ(19,4,7) occ(26,4,1) occ(30,4,3) occ(41,4,4) occ(42,4,5) occ(8,5,7) occ(11,5,8) occ(12,5,5) occ(32,5,1) occ(39,5,2) occ(40,5,3) occ(9,6,6) occ(14,6,3) occ(21,6,8) occ(29,6,2) occ(37,6,4) occ(38,6,5) occ(7,7,8) occ(10,7,6) occ(25,7,5) occ(33,7,3) occ(34,7,2) occ(5,8,6) occ(23,8,7) occ(27,8,3) occ(31,8,1) occ(35,8,5) occ(36,8,4)
Optimization: -50
Answer: 16
occ(1,7,7) occ(1,5,6) occ(1,2,1) occ(1,6,7) occ(1,1,7) occ(1,3,4) occ(1,8,8) occ(1,3,6) occ(1,5,4) occ(1,1,4) occ(2,1,8) occ(3,7,4) coverage(51) occ(42,1,2) occ(47,1,6) occ(4,2,6) occ(15,2,7) occ(16,2,2) occ(38,2,3) occ(45,2,4) occ(46,2,5) occ(49,2,8) occ(6,3,8) occ(17,3,5) occ(40,3,1) occ(43,3,2) occ(44,3,3) occ(48,3,7) occ(13,4,6) occ(14,4,3) occ(18,4,1) occ(19,4,7) occ(36,4,2) occ(41,4,4) occ(50,4,5) occ(8,5,7) occ(11,5,8) occ(12,5,5) occ(20,5,3) occ(28,5,1) occ(39,5,2) occ(9,6,6) occ(21,6,8) occ(22,6,5) occ(29,6,2) occ(30,6,3) occ(34,6,1) occ(37,6,4) occ(7,7,8) occ(10,7,6) occ(25,7,5) occ(26,7,2) occ(33,7,3) occ(5,8,6) occ(23,8,7) occ(24,8,4) occ(27,8,3) occ(31,8,1) occ(32,8,2) occ(35,8,5)
Optimization: -51
*** Info : (clingo): INTERRUPTED by signal!
SATISFIABLE

TIME LIMIT   : 1
Models       : 16+
  Optimum    : unknown
Optimization : -51
Calls        : 1
Time         : 300.000s (Solving: 299.70s 1st Model: 0.00s Unsat: 0.00s)
CPU Time     : 299.985s
